
Gurobi 10.0.1 (win64) logging started Thu Oct  5 12:31:40 2023

Set parameter LogFile to value "./results//log/BA_06_makespan_heurTrue.log"
Gurobi Optimizer version 10.0.1 build v10.0.1rc0 (win64)

CPU model: AMD Ryzen 7 3700X 8-Core Processor, instruction set [SSE2|AVX|AVX2]
Thread count: 8 physical cores, 16 logical processors, using up to 16 threads

Optimize a model with 65 rows, 100 columns and 188 nonzeros
Model fingerprint: 0xe239659c
Variable types: 0 continuous, 100 integer (90 binary)
Coefficient statistics:
  Matrix range     [1e+00, 1e+07]
  Objective range  [1e+00, 1e+00]
  Bounds range     [1e+00, 1e+00]
  RHS range        [1e+00, 3e+07]

User MIP start did not produce a new incumbent solution
User MIP start violates constraint initial_start_time_job0_stage0_machine1_constraint by 2.000000000

Found heuristic solution: objective 103.0000000
Presolve removed 40 rows and 82 columns
Presolve time: 0.00s
Presolved: 25 rows, 18 columns, 68 nonzeros
Variable types: 0 continuous, 18 integer (9 binary)
Found heuristic solution: objective 101.0000000

Root relaxation: objective 4.600000e+01, 8 iterations, 0.00 seconds (0.00 work units)

    Nodes    |    Current Node    |     Objective Bounds      |     Work
 Expl Unexpl |  Obj  Depth IntInf | Incumbent    BestBd   Gap | It/Node Time

     0     0   46.00000    0    8  101.00000   46.00000  54.5%     -    0s
H    0     0                     100.0000000   84.00000  16.0%     -    0s
     0     0  100.00000    0   10  100.00000  100.00000  0.00%     -    0s

Cutting planes:
  Implied bound: 4
  Relax-and-lift: 1

Explored 1 nodes (31 simplex iterations) in 0.01 seconds (0.00 work units)
Thread count was 16 (of 16 available processors)

Solution count 3: 100 101 103 

Optimal solution found (tolerance 1.00e-04)
Best objective 1.000000000000e+02, best bound 1.000000000000e+02, gap 0.0000%
Warning: constraint name "precedence between 0,0 to 1,1 if x_[0,0,1,1,0]=0, i.e. 1,1 before 0,0" has a space
Warning: constraint name "precedence between 0,0 to 1,1 if x_[0,0,1,1,0]=0, i.e. 1,1 before 0,0" has a space
Warning: default constraint names used to write mps file
